NAME : XML100_2361_09
DIMENSION : 101
NB_CLUSTERS : 3
CLUSTERING_ALG : DBSCAN
CLUSTERING_PARAMS : eps(146), minSamples(3)
CLUSTERS
1 0
2 1 3 4 5 6 7 10 12 13 15 21 22 23 24 25 27 28 29 30 31 32 33 35 36 39 41 42 43 44 46 47 48 49 51 52 53 54 56 57 58 59 60 61 64 65 66 70 71 73 76 77 78 79 81 84 86 88 89 90 91 92 93 96 98 99 100
3 2 8 9 11 14 16 17 18 19 20 26 34 37 38 40 45 50 55 62 63 67 68 69 72 74 75 80 82 83 85 87 94 95 97
EOF